
Gurobi 9.5.0 (linux64) logging started Wed Nov 15 11:41:01 2023

Set parameter LogFile to value "/lustre1/scratch/348/vsc34888/JointResearch/05.Models/06.Benchmarking/D.Representative_days_based_on_RES_and_Demand/RTS24_mod1_ByStages_nc20/openStarNet_RTS24_mod1_ByStages_nc20.log"
Set parameter Method to value 2
Set parameter MIPFocus to value 1
Set parameter Presolve to value 2
Set parameter RINS to value 100
Set parameter MIPGap to value 0.01
Set parameter Threads to value 36
Set parameter TimeLimit to value 604800
Set parameter IterationLimit to value 760000000
Gurobi Optimizer version 9.5.0 build v9.5.0rc5 (linux64)
Thread count: 36 physical cores, 36 logical processors, using up to 36 threads
Optimize a model with 8118 rows, 5171 columns and 20136 nonzeros
Model fingerprint: 0x10a9ad9d
Variable types: 5155 continuous, 16 integer (16 binary)
Coefficient statistics:
  Matrix range     [1e-02, 3e+04]
  Objective range  [1e+00, 1e+00]
  Bounds range     [4e-05, 2e+00]
  RHS range        [4e-05, 2e+00]
Presolve removed 5325 rows and 2612 columns
Presolve time: 0.02s
Presolved: 2793 rows, 2559 columns, 9841 nonzeros
Variable types: 2543 continuous, 16 integer (16 binary)
Found heuristic solution: objective 190.7935156
Root relaxation presolved: 2793 rows, 2559 columns, 9841 nonzeros

Root barrier log...

Ordering time: 0.04s

Barrier statistics:
 AA' NZ     : 6.804e+04
 Factor NZ  : 3.860e+05 (roughly 5 MB of memory)
 Factor Ops : 9.680e+07 (less than 1 second per iteration)
 Threads    : 36

                  Objective                Residual
Iter       Primal          Dual         Primal    Dual     Compl     Time
   0   7.53496917e+05 -6.92290211e+07  6.10e+00 3.42e+02  2.42e+04     0s
   1   6.37840894e+04 -1.45699069e+07  3.99e-01 8.82e-11  2.70e+03     0s
   2   2.93410590e+04 -1.22595901e+06  8.27e-02 1.80e-10  2.11e+02     0s
   3   1.72527814e+04 -1.45464520e+05  2.99e-03 2.40e-11  2.42e+01     0s
   4   3.94065292e+03 -1.95356703e+04  1.96e-04 1.46e-11  3.48e+00     0s
   5   9.45943763e+02 -3.23639919e+03  3.08e-05 7.28e-12  6.19e-01     0s
   6   4.00051708e+02 -1.08947233e+03  4.72e-06 7.28e-12  2.20e-01     0s
   7   2.93598675e+02 -5.66206424e+02  2.50e-06 3.64e-12  1.27e-01     0s
   8   2.03809847e+02 -2.12652373e+02  1.28e-06 7.28e-12  6.16e-02     0s
   9   1.57025800e+02 -5.59655088e+01  7.05e-07 3.64e-12  3.15e-02     0s
  10   1.33964743e+02  4.80096887e+01  4.35e-07 3.64e-12  1.27e-02     0s
  11   1.00965630e+02  8.49510701e+01  6.96e-08 3.64e-12  2.37e-03     0s
  12   9.68469857e+01  9.22379987e+01  2.88e-08 3.64e-12  6.82e-04     0s
  13   9.49351764e+01  9.31014769e+01  9.77e-09 3.64e-12  2.71e-04     0s
  14   9.42287220e+01  9.36686889e+01  3.04e-09 3.64e-12  8.29e-05     0s
  15   9.41121546e+01  9.38579700e+01  1.94e-09 3.64e-12  3.76e-05     0s
  16   9.40981584e+01  9.38899171e+01  1.80e-09 7.28e-12  3.08e-05     0s
  17   9.39078577e+01  9.39031990e+01  5.32e-10 3.64e-12  6.90e-07     0s
  18   9.39053926e+01  9.39053875e+01  9.30e-12 7.28e-12  7.45e-10     0s
  19   9.39053901e+01  9.39053901e+01  2.49e-11 3.64e-12  7.45e-13     0s

Barrier solved model in 19 iterations and 0.40 seconds (0.12 work units)
Optimal objective 9.39053901e+01


Root relaxation: objective 9.390539e+01, 337 iterations, 0.36 seconds (0.08 work units)

    Nodes    |    Current Node    |     Objective Bounds      |     Work
 Expl Unexpl |  Obj  Depth IntInf | Incumbent    BestBd   Gap | It/Node Time

     0     0   93.90539    0   13  190.79352   93.90539  50.8%     -    0s
H    0     0                     116.8267815   93.90539  19.6%     -    0s
     0     0   96.82350    0   12  116.82678   96.82350  17.1%     -    0s
H    0     0                     116.6129224   97.22556  16.6%     -    0s
     0     0   97.22556    0   12  116.61292   97.22556  16.6%     -    0s
     0     0   97.71410    0   13  116.61292   97.71410  16.2%     -    0s
     0     0   97.74042    0   13  116.61292   97.74042  16.2%     -    0s
     0     0   97.74042    0   13  116.61292   97.74042  16.2%     -    0s
     0     0   98.04131    0   10  116.61292   98.04131  15.9%     -    0s
     0     0   98.04131    0   10  116.61292   98.04131  15.9%     -    0s
     0     0   98.20951    0   11  116.61292   98.20951  15.8%     -    0s
H    0     0                     112.8517862   98.20951  13.0%     -    0s
     0     0   98.23985    0   11  112.85179   98.23985  12.9%     -    0s
     0     0   98.26798    0   11  112.85179   98.26798  12.9%     -    0s
     0     0   98.26798    0   11  112.85179   98.26798  12.9%     -    0s
     0     0   98.27458    0   11  112.85179   98.27458  12.9%     -    0s
     0     0   98.27458    0   11  112.85179   98.27458  12.9%     -    0s
     0     0   98.28164    0   11  112.85179   98.28164  12.9%     -    0s
H    0     0                     104.8397874   98.28164  6.26%     -    1s
     0     2   98.28164    0   11  104.83979   98.28164  6.26%     -    1s

Cutting planes:
  Gomory: 5
  Implied bound: 10
  MIR: 115
  Relax-and-lift: 3

Explored 76 nodes (4769 simplex iterations) in 1.71 seconds (1.31 work units)
Thread count was 36 (of 36 available processors)

Solution count 5: 104.84 112.852 116.613 ... 190.794

Optimal solution found (tolerance 1.00e-02)
Best objective 1.048397874319e+02, best bound 1.048397874319e+02, gap 0.0000%

Gurobi 9.5.0 (linux64) logging started Wed Nov 15 11:41:03 2023

Set parameter LogFile to value "/lustre1/scratch/348/vsc34888/JointResearch/05.Models/06.Benchmarking/D.Representative_days_based_on_RES_and_Demand/RTS24_mod1_ByStages_nc20/openStarNet_RTS24_mod1_ByStages_nc20.log"
Set parameter Method to value 2
Set parameter MIPFocus to value 1
Set parameter Presolve to value 2
Set parameter RINS to value 100
Set parameter MIPGap to value 0.01
Set parameter Threads to value 36
Set parameter TimeLimit to value 604800
Set parameter IterationLimit to value 760000000
No parameters matching 'relax_integrality' found
Gurobi Optimizer version 9.5.0 build v9.5.0rc5 (linux64)
Thread count: 36 physical cores, 36 logical processors, using up to 36 threads
Optimize a model with 8118 rows, 5155 columns and 18776 nonzeros
Model fingerprint: 0xf92ffde8
Coefficient statistics:
  Matrix range     [1e-02, 3e+04]
  Objective range  [1e+00, 1e+00]
  Bounds range     [4e-05, 2e+00]
  RHS range        [4e-05, 3e+01]
Presolve removed 6186 rows and 2276 columns
Presolve time: 0.01s
Presolved: 1932 rows, 2900 columns, 7205 nonzeros

Ordering time: 0.00s

Barrier statistics:
 AA' NZ     : 4.942e+03
 Factor NZ  : 2.060e+04 (roughly 2 MB of memory)
 Factor Ops : 3.070e+05 (less than 1 second per iteration)
 Threads    : 1

                  Objective                Residual
Iter       Primal          Dual         Primal    Dual     Compl     Time
   0   6.12458127e+05 -6.56292019e+07  4.81e+00 3.43e+02  2.40e+04     0s
   1   6.72722994e+04 -9.30000131e+06  3.57e-01 2.05e-11  2.33e+03     0s
   2   3.55466926e+04 -8.47191334e+05  7.84e-02 1.82e-11  2.04e+02     0s
   3   1.51462305e+04 -1.13882921e+05  3.22e-03 1.09e-11  2.63e+01     0s
   4   2.62118001e+03 -1.47607072e+04  1.69e-04 7.28e-12  3.51e+00     0s
   5   6.95003649e+02 -1.97828568e+03  2.37e-05 6.97e-12  5.40e-01     0s
   6   2.50988785e+02 -4.13771335e+02  3.75e-09 3.64e-12  1.34e-01     0s
   7   1.88829286e+02 -1.12272676e+02  1.93e-09 3.64e-12  6.08e-02     0s
   8   1.39271279e+02  4.84676976e+01  7.39e-10 3.64e-12  1.83e-02     0s
   9   1.12658168e+02  9.76164078e+01  1.33e-10 7.28e-12  3.04e-03     0s
  10   1.05482760e+02  1.02860412e+02  8.14e-12 3.64e-12  5.30e-04     0s
  11   1.04880369e+02  1.04542758e+02  7.27e-12 3.64e-12  6.82e-05     0s
  12   1.04839926e+02  1.04839449e+02  6.60e-12 3.64e-12  9.64e-08     0s
  13   1.04839788e+02  1.04839787e+02  1.39e-12 7.28e-12  9.64e-11     0s
  14   1.04839787e+02  1.04839787e+02  1.97e-12 7.28e-12  9.64e-14     0s

Barrier solved model in 14 iterations and 0.03 seconds (0.03 work units)
Optimal objective 1.04839787e+02

Crossover log...

     265 DPushes remaining with DInf 0.0000000e+00                 0s
       0 DPushes remaining with DInf 0.0000000e+00                 0s

      85 PPushes remaining with PInf 0.0000000e+00                 0s
       0 PPushes remaining with PInf 0.0000000e+00                 0s

  Push phase complete: Pinf 0.0000000e+00, Dinf 2.5411106e-12      0s

Iteration    Objective       Primal Inf.    Dual Inf.      Time
      93    1.0483979e+02   0.000000e+00   0.000000e+00      0s

Use crossover to convert LP symmetric solution to basic solution...
Crossover log...

       0 DPushes remaining with DInf 0.0000000e+00                 0s

      37 PPushes remaining with PInf 0.0000000e+00                 0s
       0 PPushes remaining with PInf 0.0000000e+00                 0s

  Push phase complete: Pinf 0.0000000e+00, Dinf 2.2230102e-12      0s

Iteration    Objective       Primal Inf.    Dual Inf.      Time
     136    1.0483979e+02   0.000000e+00   0.000000e+00      0s

Solved in 136 iterations and 0.04 seconds (0.03 work units)
Optimal objective  1.048397874e+02

Gurobi 9.5.0 (linux64) logging started Wed Nov 15 17:09:00 2023

Set parameter LogFile to value "/lustre1/scratch/348/vsc34888/JointResearch/05.Models/06.Benchmarking/D.Representative_days_based_on_RES_and_Demand/RTS24_mod1_ByStages_nc20/openStarNet_RTS24_mod1_ByStages_nc20.log"
Set parameter Method to value 2
Set parameter MIPFocus to value 1
Set parameter Presolve to value 2
Set parameter RINS to value 100
Set parameter MIPGap to value 0.01
Set parameter Threads to value 36
Set parameter TimeLimit to value 604800
Set parameter IterationLimit to value 760000000
Gurobi Optimizer version 9.5.0 build v9.5.0rc5 (linux64)
Thread count: 36 physical cores, 36 logical processors, using up to 36 threads
Optimize a model with 10050 rows, 5677 columns and 26921 nonzeros
Model fingerprint: 0xa3c525b5
Variable types: 5638 continuous, 39 integer (39 binary)
Coefficient statistics:
  Matrix range     [1e-02, 3e+04]
  Objective range  [1e+00, 1e+00]
  Bounds range     [4e-05, 2e+00]
  RHS range        [4e-05, 2e+00]
Presolve removed 5262 rows and 2549 columns
Presolve time: 0.03s
Presolved: 4788 rows, 3128 columns, 16676 nonzeros
Variable types: 3089 continuous, 39 integer (39 binary)
Found heuristic solution: objective 190.7935156
Root relaxation presolved: 4788 rows, 3128 columns, 16676 nonzeros

Root barrier log...

Ordering time: 0.10s

Barrier statistics:
 AA' NZ     : 1.632e+05
 Factor NZ  : 1.172e+06 (roughly 13 MB of memory)
 Factor Ops : 4.321e+08 (less than 1 second per iteration)
 Threads    : 36

                  Objective                Residual
Iter       Primal          Dual         Primal    Dual     Compl     Time
   0   5.84847139e+05 -2.27919273e+07  4.01e+00 2.96e+02  6.30e+03     0s
   1   5.62803307e+04 -5.71432448e+06  3.10e-01 1.29e-10  7.54e+02     0s
   2   1.65476307e+04 -5.25093083e+05  6.34e-03 7.77e-11  5.58e+01     0s
   3   3.56761193e+03 -5.80862301e+04  4.44e-13 9.40e-12  6.27e+00     0s
   4   6.35775332e+02 -4.01872738e+03  3.53e-13 2.73e-12  4.74e-01     0s
   5   3.60787246e+02 -1.28041072e+03  3.22e-13 1.36e-12  1.67e-01     0s
   6   2.73281124e+02 -4.68734412e+02  2.41e-13 9.09e-13  7.55e-02     0s
   7   2.15237384e+02 -2.11968213e+02  1.87e-13 9.09e-13  4.35e-02     0s
   8   1.52865426e+02 -2.64028500e+00  3.12e-13 9.09e-13  1.58e-02     0s
   9   1.16363430e+02  6.71455502e+01  3.58e-13 1.82e-12  5.01e-03     0s
  10   1.03724425e+02  8.67878958e+01  6.69e-13 1.82e-12  1.72e-03     0s
  11   9.85412177e+01  9.12027089e+01  1.33e-12 9.09e-13  7.47e-04     0s
  12   9.59764034e+01  9.22071223e+01  9.84e-12 9.09e-13  3.84e-04     0s
  13   9.50722291e+01  9.32357504e+01  1.78e-11 1.82e-12  1.87e-04     0s
  14   9.44898585e+01  9.37172667e+01  9.89e-12 9.09e-13  7.86e-05     0s
  15   9.41851950e+01  9.38633182e+01  7.64e-12 1.82e-12  3.28e-05     1s
  16   9.41741277e+01  9.38951946e+01  5.57e-11 1.82e-12  2.84e-05     1s
  17   9.39156148e+01  9.39003715e+01  9.98e-10 1.82e-12  1.55e-06     1s
  18   9.39054005e+01  9.39053850e+01  1.95e-11 1.82e-12  1.57e-09     1s
  19   9.39053901e+01  9.39053901e+01  2.78e-11 1.82e-12  1.57e-12     1s

Barrier solved model in 19 iterations and 0.57 seconds (0.24 work units)
Optimal objective 9.39053901e+01


Root relaxation: objective 9.390539e+01, 389 iterations, 0.51 seconds (0.19 work units)

    Nodes    |    Current Node    |     Objective Bounds      |     Work
 Expl Unexpl |  Obj  Depth IntInf | Incumbent    BestBd   Gap | It/Node Time

     0     0   93.90539    0   13  190.79352   93.90539  50.8%     -    0s
H    0     0                     116.8267815   93.90539  19.6%     -    0s
     0     0   96.89758    0   12  116.82678   96.89758  17.1%     -    0s
H    0     0                     116.6129224   97.29291  16.6%     -    0s
     0     0   97.29291    0   12  116.61292   97.29291  16.6%     -    0s
     0     0   97.77000    0   12  116.61292   97.77000  16.2%     -    0s
     0     0   97.79481    0   13  116.61292   97.79481  16.1%     -    0s
     0     0   97.79481    0   13  116.61292   97.79481  16.1%     -    0s
     0     0   98.02194    0   10  116.61292   98.02194  15.9%     -    0s
     0     0   98.14020    0   11  116.61292   98.14020  15.8%     -    0s
     0     0   98.14020    0   11  116.61292   98.14020  15.8%     -    0s
     0     0   98.58190    0   11  116.61292   98.58190  15.5%     -    1s
H    0     0                     112.8517862   98.58190  12.6%     -    1s
     0     0   98.61914    0   11  112.85179   98.61914  12.6%     -    1s
     0     0   98.62532    0   11  112.85179   98.62532  12.6%     -    1s
     0     0   98.63863    0   11  112.85179   98.63863  12.6%     -    1s
     0     0   98.63905    0   11  112.85179   98.63905  12.6%     -    1s
     0     0   98.65782    0   11  112.85179   98.65782  12.6%     -    1s
     0     0   98.65782    0   11  112.85179   98.65782  12.6%     -    1s
     0     0   98.65786    0   11  112.85179   98.65786  12.6%     -    1s
H    0     0                     104.8397874   98.65786  5.90%     -    1s
     0     2   98.65786    0   11  104.83979   98.65786  5.90%     -    2s

Cutting planes:
  Gomory: 5
  Implied bound: 8
  MIR: 116
  Relax-and-lift: 1

Explored 128 nodes (7033 simplex iterations) in 2.65 seconds (1.95 work units)
Thread count was 36 (of 36 available processors)

Solution count 5: 104.84 112.852 116.613 ... 190.794

Optimal solution found (tolerance 1.00e-02)
Best objective 1.048397874319e+02, best bound 1.047683769159e+02, gap 0.0681%

Gurobi 9.5.0 (linux64) logging started Wed Nov 15 17:09:04 2023

Set parameter LogFile to value "/lustre1/scratch/348/vsc34888/JointResearch/05.Models/06.Benchmarking/D.Representative_days_based_on_RES_and_Demand/RTS24_mod1_ByStages_nc20/openStarNet_RTS24_mod1_ByStages_nc20.log"
Set parameter Method to value 2
Set parameter MIPFocus to value 1
Set parameter Presolve to value 2
Set parameter RINS to value 100
Set parameter MIPGap to value 0.01
Set parameter Threads to value 36
Set parameter TimeLimit to value 604800
Set parameter IterationLimit to value 760000000
No parameters matching 'relax_integrality' found
Gurobi Optimizer version 9.5.0 build v9.5.0rc5 (linux64)
Thread count: 36 physical cores, 36 logical processors, using up to 36 threads
Optimize a model with 10050 rows, 5638 columns and 23606 nonzeros
Model fingerprint: 0x5410ea34
Coefficient statistics:
  Matrix range     [1e-02, 3e+04]
  Objective range  [1e+00, 1e+00]
  Bounds range     [4e-05, 2e+00]
  RHS range        [4e-05, 3e+01]
Presolve removed 8097 rows and 2759 columns
Presolve time: 0.01s
Presolved: 1953 rows, 2921 columns, 7268 nonzeros

Ordering time: 0.00s

Barrier statistics:
 AA' NZ     : 5.128e+03
 Factor NZ  : 2.123e+04 (roughly 2 MB of memory)
 Factor Ops : 3.212e+05 (less than 1 second per iteration)
 Threads    : 1

                  Objective                Residual
Iter       Primal          Dual         Primal    Dual     Compl     Time
   0   6.09095733e+05 -6.57393188e+07  4.79e+00 3.43e+02  2.38e+04     0s
   1   6.70977903e+04 -9.35469489e+06  3.55e-01 1.85e-11  2.32e+03     0s
   2   3.54422621e+04 -8.56943479e+05  7.75e-02 1.46e-11  2.04e+02     0s
   3   1.50990724e+04 -1.14655536e+05  3.18e-03 1.09e-11  2.61e+01     0s
   4   2.61354652e+03 -1.50568588e+04  1.64e-04 6.06e-12  3.53e+00     0s
   5   6.87847690e+02 -1.98387723e+03  2.25e-05 7.28e-12  5.34e-01     0s
   6   2.64770249e+02 -4.02500370e+02  7.58e-07 3.64e-12  1.33e-01     0s
   7   1.97253567e+02 -1.28187393e+02  3.92e-07 7.28e-12  6.50e-02     0s
   8   1.43979596e+02  4.05009291e+01  1.46e-07 3.64e-12  2.07e-02     0s
   9   1.14388480e+02  9.28529115e+01  2.85e-08 3.64e-12  4.30e-03     0s
  10   1.06555707e+02  1.02328604e+02  4.61e-09 3.64e-12  8.45e-04     0s
  11   1.04986652e+02  1.04525838e+02  3.23e-10 3.64e-12  9.21e-05     0s
  12   1.04840191e+02  1.04839151e+02  5.21e-12 3.64e-12  2.08e-07     0s
  13   1.04839788e+02  1.04839787e+02  7.63e-13 3.64e-12  2.08e-10     0s
  14   1.04839787e+02  1.04839787e+02  6.57e-13 7.28e-12  2.08e-13     0s

Barrier solved model in 14 iterations and 0.03 seconds (0.03 work units)
Optimal objective 1.04839787e+02

Crossover log...

     263 DPushes remaining with DInf 0.0000000e+00                 0s
       0 DPushes remaining with DInf 0.0000000e+00                 0s

      84 PPushes remaining with PInf 0.0000000e+00                 0s
       0 PPushes remaining with PInf 0.0000000e+00                 0s

  Push phase complete: Pinf 0.0000000e+00, Dinf 3.0998924e-12      0s

Iteration    Objective       Primal Inf.    Dual Inf.      Time
      91    1.0483979e+02   0.000000e+00   0.000000e+00      0s

Use crossover to convert LP symmetric solution to basic solution...
Crossover log...

       0 DPushes remaining with DInf 0.0000000e+00                 0s

      36 PPushes remaining with PInf 0.0000000e+00                 0s
       0 PPushes remaining with PInf 0.0000000e+00                 0s

  Push phase complete: Pinf 0.0000000e+00, Dinf 1.7242885e-12      0s

Iteration    Objective       Primal Inf.    Dual Inf.      Time
     133    1.0483979e+02   0.000000e+00   0.000000e+00      0s

Solved in 133 iterations and 0.05 seconds (0.04 work units)
Optimal objective  1.048397874e+02

Gurobi 9.5.0 (linux64) logging started Thu Nov 16 15:47:56 2023

Set parameter LogFile to value "/lustre1/scratch/348/vsc34888/JointResearch/05.Models/06.Benchmarking/D.Representative_days_based_on_RES_and_Demand/RTS24_mod1_ByStages_nc20/openStarNet_RTS24_mod1_ByStages_nc20.log"
Set parameter Method to value 2
Set parameter MIPFocus to value 1
Set parameter Presolve to value 2
Set parameter RINS to value 100
Set parameter MIPGap to value 0.01
Set parameter Threads to value 36
Set parameter TimeLimit to value 604800
Set parameter IterationLimit to value 760000000
Gurobi Optimizer version 9.5.0 build v9.5.0rc5 (linux64)
Thread count: 36 physical cores, 36 logical processors, using up to 36 threads
Optimize a model with 12402 rows, 6275 columns and 35478 nonzeros
Model fingerprint: 0xbe65c9cc
Variable types: 6205 continuous, 70 integer (70 binary)
Coefficient statistics:
  Matrix range     [1e-02, 3e+04]
  Objective range  [1e+00, 1e+00]
  Bounds range     [4e-05, 2e+00]
  RHS range        [4e-05, 2e+00]
Presolve removed 5010 rows and 2465 columns
Presolve time: 0.05s
Presolved: 7392 rows, 3810 columns, 25790 nonzeros
Variable types: 3740 continuous, 70 integer (70 binary)
Found heuristic solution: objective 275.2589223
Root relaxation presolved: 7392 rows, 3810 columns, 25790 nonzeros

Root barrier log...

Ordering time: 0.17s
Ordering time: 0.17s

Barrier statistics:
 Dense cols : 70
 AA' NZ     : 7.566e+04
 Factor NZ  : 2.440e+05 (roughly 7 MB of memory)
 Factor Ops : 1.314e+07 (less than 1 second per iteration)
 Threads    : 36

                  Objective                Residual
Iter       Primal          Dual         Primal    Dual     Compl     Time
   0   4.68610508e+05 -1.46289088e+07  8.09e+00 2.38e+02  3.12e+03     0s
   1   4.57540823e+04 -4.37916837e+06  5.36e-01 3.63e-10  3.86e+02     0s
   2   1.31818382e+04 -4.72783965e+05  1.91e-02 1.24e-10  3.57e+01     0s
   3   1.87373145e+03 -3.25607818e+04  4.82e-04 6.06e-12  2.50e+00     0s
   4   5.06924107e+02 -4.73921680e+03  5.46e-07 1.36e-12  3.80e-01     0s
   5   3.75218166e+02 -1.49242433e+03  1.28e-07 9.09e-13  1.35e-01     0s
   6   2.72864410e+02 -5.28709511e+02  5.55e-08 6.82e-13  5.81e-02     0s
   7   2.11564901e+02 -1.74723276e+02  2.94e-08 9.09e-13  2.80e-02     0s
   8   1.47766581e+02  1.03427948e+01  1.03e-08 9.09e-13  9.96e-03     0s
   9   1.28930967e+02  6.14658301e+01  5.16e-09 9.09e-13  4.89e-03     0s
  10   1.17362198e+02  8.74967474e+01  2.24e-09 9.09e-13  2.17e-03     0s
  11   1.12480496e+02  9.43337559e+01  9.92e-10 9.09e-13  1.32e-03     0s
  12   1.10899281e+02  1.02526644e+02  6.11e-10 9.09e-13  6.07e-04     0s
  13   1.09441034e+02  1.04121045e+02  2.70e-10 9.09e-13  3.86e-04     0s
  14   1.09187721e+02  1.05510225e+02  2.13e-10 9.09e-13  2.67e-04     0s
  15   1.08622413e+02  1.06805177e+02  9.72e-11 9.09e-13  1.32e-04     0s
  16   1.08208377e+02  1.07689607e+02  1.72e-11 9.09e-13  3.76e-05     0s
  17   1.08130847e+02  1.07880181e+02  5.98e-12 9.09e-13  1.82e-05     0s
  18   1.08113784e+02  1.08055721e+02  2.61e-12 9.09e-13  4.21e-06     0s
  19   1.08095223e+02  1.08093314e+02  1.02e-11 9.09e-13  1.38e-07     0s
  20   1.08094744e+02  1.08094722e+02  7.96e-09 9.09e-13  1.56e-09     0s
  21   1.08094740e+02  1.08094740e+02  3.69e-11 9.09e-13  1.34e-12     1s

Barrier solved model in 21 iterations and 0.50 seconds (0.25 work units)
Optimal objective 1.08094740e+02


Root relaxation: objective 1.080947e+02, 551 iterations, 0.44 seconds (0.17 work units)

    Nodes    |    Current Node    |     Objective Bounds      |     Work
 Expl Unexpl |  Obj  Depth IntInf | Incumbent    BestBd   Gap | It/Node Time

     0     0  108.09474    0   14  275.25892  108.09474  60.7%     -    0s
H    0     0                     209.9040800  108.09474  48.5%     -    0s
     0     0  109.68296    0   15  209.90408  109.68296  47.7%     -    0s
H    0     0                     169.9790119  109.68296  35.5%     -    0s
     0     0  109.85425    0   16  169.97901  109.85425  35.4%     -    0s
     0     0  109.85425    0   15  169.97901  109.85425  35.4%     -    0s
     0     0  109.85425    0   15  169.97901  109.85425  35.4%     -    0s
     0     0  110.53073    0   16  169.97901  110.53073  35.0%     -    0s
     0     0  110.60511    0   18  169.97901  110.60511  34.9%     -    1s
     0     0  110.70744    0   17  169.97901  110.70744  34.9%     -    1s
     0     0  110.70796    0   17  169.97901  110.70796  34.9%     -    1s
     0     0  112.22158    0   18  169.97901  112.22158  34.0%     -    1s
     0     0  112.53146    0   17  169.97901  112.53146  33.8%     -    1s
     0     0  112.54250    0   18  169.97901  112.54250  33.8%     -    1s
     0     0  112.54250    0   18  169.97901  112.54250  33.8%     -    1s
     0     0  112.91206    0   21  169.97901  112.91206  33.6%     -    1s
     0     0  112.91274    0   21  169.97901  112.91274  33.6%     -    1s
     0     0  112.91274    0   21  169.97901  112.91274  33.6%     -    1s
     0     0  112.95055    0   19  169.97901  112.95055  33.6%     -    1s
H    0     0                     135.8968211  112.95055  16.9%     -    6s
     0     2  112.95055    0   19  135.89682  112.95055  16.9%     -    6s
H   30    32                     128.8232553  115.86844  10.1%   290    7s
H   63    94                     127.9884492  116.51208  8.97%   236   12s
H   65    94                     127.0878954  116.51208  8.32%   232   12s
H   68    94                     124.4878276  116.53121  6.39%   232   12s
    99   102  119.79286    7   17  124.48783  116.53121  6.39%   212   15s

Cutting planes:
  Gomory: 6
  Implied bound: 1
  MIR: 404

Explored 1184 nodes (120586 simplex iterations) in 19.10 seconds (24.14 work units)
Thread count was 36 (of 36 available processors)

Solution count 8: 124.488 127.088 127.988 ... 275.259

Optimal solution found (tolerance 1.00e-02)
Best objective 1.244878275964e+02, best bound 1.236356927221e+02, gap 0.6845%

Gurobi 9.5.0 (linux64) logging started Thu Nov 16 15:48:16 2023

Set parameter LogFile to value "/lustre1/scratch/348/vsc34888/JointResearch/05.Models/06.Benchmarking/D.Representative_days_based_on_RES_and_Demand/RTS24_mod1_ByStages_nc20/openStarNet_RTS24_mod1_ByStages_nc20.log"
Set parameter Method to value 2
Set parameter MIPFocus to value 1
Set parameter Presolve to value 2
Set parameter RINS to value 100
Set parameter MIPGap to value 0.01
Set parameter Threads to value 36
Set parameter TimeLimit to value 604800
Set parameter IterationLimit to value 760000000
No parameters matching 'relax_integrality' found
Gurobi Optimizer version 9.5.0 build v9.5.0rc5 (linux64)
Thread count: 36 physical cores, 36 logical processors, using up to 36 threads
Optimize a model with 12402 rows, 6205 columns and 29528 nonzeros
Model fingerprint: 0x1dc148ee
Coefficient statistics:
  Matrix range     [1e-02, 3e+04]
  Objective range  [1e+00, 1e+00]
  Bounds range     [4e-05, 2e+00]
  RHS range        [4e-05, 4e+01]
Presolve removed 10565 rows and 3442 columns
Presolve time: 0.01s
Presolved: 1837 rows, 2805 columns, 6669 nonzeros

Ordering time: 0.00s

Barrier statistics:
 AA' NZ     : 4.987e+03
 Factor NZ  : 2.230e+04 (roughly 2 MB of memory)
 Factor Ops : 3.487e+05 (less than 1 second per iteration)
 Threads    : 1

                  Objective                Residual
Iter       Primal          Dual         Primal    Dual     Compl     Time
   0   4.67182661e+05 -1.14576259e+07  4.44e+00 2.65e+02  4.34e+03     0s
   1   6.07214024e+04 -1.69115014e+06  3.74e-01 3.03e-12  4.37e+02     0s
   2   1.62816922e+04 -2.52585684e+05  1.02e-02 4.00e-12  5.38e+01     0s
   3   2.42764067e+03 -2.02265349e+04  3.71e-04 2.42e-12  4.48e+00     0s
   4   4.63283915e+02 -2.45968078e+03  1.37e-06 1.82e-12  5.77e-01     0s
   5   3.12943986e+02 -7.17335952e+02  1.72e-07 9.09e-13  2.03e-01     0s
   6   1.99167889e+02 -1.72089656e+02  4.81e-08 1.36e-12  7.33e-02     0s
   7   1.71972069e+02 -2.17922525e+01  2.90e-08 9.09e-13  3.83e-02     0s
   8   1.33950928e+02  8.56192362e+01  3.17e-09 9.09e-13  9.54e-03     0s
   9   1.25555431e+02  1.19157960e+02  1.81e-10 9.09e-13  1.26e-03     0s
  10   1.24682090e+02  1.23896614e+02  2.55e-11 9.09e-13  1.55e-04     0s
  11   1.24501758e+02  1.24179988e+02  8.99e-13 9.09e-13  6.35e-05     0s
  12   1.24488375e+02  1.24486120e+02  5.00e-13 9.09e-13  4.45e-07     0s
  13   1.24487828e+02  1.24487826e+02  7.82e-14 9.09e-13  4.45e-10     0s
  14   1.24487828e+02  1.24487828e+02  7.97e-14 9.09e-13  4.45e-13     0s

Barrier solved model in 14 iterations and 0.04 seconds (0.03 work units)
Optimal objective 1.24487828e+02

Crossover log...

     256 DPushes remaining with DInf 0.0000000e+00                 0s
       0 DPushes remaining with DInf 0.0000000e+00                 0s

      81 PPushes remaining with PInf 0.0000000e+00                 0s
       0 PPushes remaining with PInf 0.0000000e+00                 0s

  Push phase complete: Pinf 0.0000000e+00, Dinf 1.6423759e-12      0s

Iteration    Objective       Primal Inf.    Dual Inf.      Time
      88    1.2448783e+02   0.000000e+00   0.000000e+00      0s

Use crossover to convert LP symmetric solution to basic solution...
Crossover log...

      49 PPushes remaining with PInf 0.0000000e+00                 0s
       0 PPushes remaining with PInf 0.0000000e+00                 0s

  Push phase complete: Pinf 0.0000000e+00, Dinf 1.8522546e-12      0s

Iteration    Objective       Primal Inf.    Dual Inf.      Time
     140    1.2448783e+02   0.000000e+00   0.000000e+00      0s

Solved in 140 iterations and 0.05 seconds (0.04 work units)
Optimal objective  1.244878276e+02

Gurobi 9.5.0 (linux64) logging started Wed Nov 22 16:17:29 2023

Set parameter LogFile to value "/lustre1/scratch/348/vsc34888/JointResearch/05.Models/06.Benchmarking/D.Representative_days_based_on_RES_and_Demand/RTS24_mod1_ByStages_nc20/openStarNet_RTS24_mod1_ByStages_nc20.log"
Set parameter Method to value 2
Set parameter MIPFocus to value 1
Set parameter Presolve to value 2
Set parameter RINS to value 100
Set parameter MIPGap to value 0.01
Set parameter Threads to value 36
Set parameter TimeLimit to value 604800
Set parameter IterationLimit to value 760000000
Gurobi Optimizer version 9.5.0 build v9.5.0rc5 (linux64)
Thread count: 36 physical cores, 36 logical processors, using up to 36 threads
Optimize a model with 10041 rows, 5850 columns and 26591 nonzeros
Model fingerprint: 0x05598aa6
Variable types: 5814 continuous, 36 integer (36 binary)
Coefficient statistics:
  Matrix range     [5e-03, 1e+04]
  Objective range  [1e+00, 1e+00]
  Bounds range     [7e-05, 3e+00]
  RHS range        [7e-05, 3e+00]
Presolve removed 5512 rows and 2740 columns
Presolve time: 0.03s
Presolved: 4529 rows, 3110 columns, 15842 nonzeros
Variable types: 3074 continuous, 36 integer (36 binary)
Found heuristic solution: objective 152.7458605
Root relaxation presolve removed 7 rows and 7 columns
Root relaxation presolved: 4522 rows, 3103 columns, 15835 nonzeros

Root barrier log...

Ordering time: 0.09s

Barrier statistics:
 AA' NZ     : 1.546e+05
 Factor NZ  : 7.986e+05 (roughly 10 MB of memory)
 Factor Ops : 2.324e+08 (less than 1 second per iteration)
 Threads    : 36

                  Objective                Residual
Iter       Primal          Dual         Primal    Dual     Compl     Time
   0   5.52664112e+05 -1.83891392e+07  6.99e+00 1.88e+02  5.28e+03     0s
   1   4.65971142e+04 -5.27289043e+06  5.58e-01 2.04e-11  6.91e+02     0s
   2   1.20323540e+04 -5.19342334e+05  3.29e-02 1.68e-11  5.78e+01     0s
   3   2.36433429e+03 -3.42771795e+04  3.26e-13 1.53e-11  3.85e+00     0s
   4   4.77866970e+02 -3.37724373e+03  4.25e-13 1.84e-12  4.05e-01     0s
   5   3.29371970e+02 -8.45381032e+02  8.88e-14 9.09e-13  1.23e-01     0s
   6   2.02171195e+02 -3.07757805e+02  7.12e-14 9.09e-13  5.36e-02     0s
   7   1.55270759e+02 -6.31040364e+01  6.22e-14 9.09e-13  2.29e-02     0s
   8   1.29718500e+02  1.95799300e+01  1.29e-13 9.09e-13  1.16e-02     0s
   9   1.14159817e+02  4.13136031e+01  3.86e-13 9.09e-13  7.65e-03     0s
  10   9.92419321e+01  6.55822655e+01  8.59e-13 9.09e-13  3.53e-03     0s
  11   9.40065052e+01  8.44600547e+01  4.99e-12 9.09e-13  1.00e-03     0s
  12   9.22328987e+01  8.65904505e+01  5.81e-12 9.09e-13  5.92e-04     0s
  13   9.11591646e+01  8.72552131e+01  6.72e-12 9.09e-13  4.10e-04     1s
  14   9.03973580e+01  8.83122670e+01  7.50e-12 9.09e-13  2.19e-04     1s
  15   8.97229677e+01  8.87722008e+01  1.80e-11 9.09e-13  9.98e-05     1s
  16   8.92761633e+01  8.90760610e+01  2.56e-11 9.09e-13  2.10e-05     1s
  17   8.92101270e+01  8.91513182e+01  2.86e-11 9.09e-13  6.17e-06     1s
  18   8.92009413e+01  8.91535177e+01  2.67e-09 9.09e-13  4.98e-06     1s
  19   8.91952872e+01  8.91716154e+01  2.03e-09 9.09e-13  2.49e-06     1s
  20   8.91853202e+01  8.91813301e+01  1.65e-09 9.09e-13  4.19e-07     1s
  21   8.91817707e+01  8.91812404e+01  5.33e-10 9.09e-13  5.57e-08     1s
  22   8.91817636e+01  8.91817623e+01  7.01e-11 9.09e-13  1.32e-10     1s
  23   8.91817635e+01  8.91817634e+01  2.42e-09 9.09e-13  1.15e-11     1s

Barrier solved model in 23 iterations and 0.66 seconds (0.23 work units)
Optimal objective 8.91817635e+01


Root relaxation: objective 8.918176e+01, 567 iterations, 0.62 seconds (0.18 work units)

    Nodes    |    Current Node    |     Objective Bounds      |     Work
 Expl Unexpl |  Obj  Depth IntInf | Incumbent    BestBd   Gap | It/Node Time

     0     0   89.18176    0   14  152.74586   89.18176  41.6%     -    0s
H    0     0                     136.2655190   90.16543  33.8%     -    0s
     0     0   90.16543    0   19  136.26552   90.16543  33.8%     -    0s
     0     0   90.16543    0   19  136.26552   90.16543  33.8%     -    1s
     0     0   90.98531    0   20  136.26552   90.98531  33.2%     -    1s
     0     0   91.02258    0   19  136.26552   91.02258  33.2%     -    1s
     0     0   91.02571    0   20  136.26552   91.02571  33.2%     -    1s
     0     0   91.02571    0   20  136.26552   91.02571  33.2%     -    1s
H    0     0                     121.7207257   91.31948  25.0%     -    1s
     0     0   91.31948    0   16  121.72073   91.31948  25.0%     -    1s
     0     0   91.48925    0   15  121.72073   91.48925  24.8%     -    1s
     0     0   91.49084    0   16  121.72073   91.49084  24.8%     -    1s
     0     0   91.49084    0   16  121.72073   91.49084  24.8%     -    1s
     0     0   91.51326    0   15  121.72073   91.51326  24.8%     -    1s
     0     0   91.51326    0   15  121.72073   91.51326  24.8%     -    1s
     0     0   91.55093    0   16  121.72073   91.55093  24.8%     -    1s
H    0     0                     112.2263250   91.55093  18.4%     -    5s
     0     2   91.55093    0   16  112.22632   91.55093  18.4%     -    6s
    95   122   92.94558    7   14  112.22632   92.94558  17.2%   196   12s
H   96   122                     111.5414769   92.97726  16.6%   194   12s
H  100   122                     110.9876244   92.97726  16.2%   195   12s
H  110   122                     110.8733457   92.97726  16.1%   197   12s
H  129   122                     110.6623958   92.97726  16.0%   188   12s
   131   142   93.23709    8   14  110.66240   92.97726  16.0%   189   18s
H  132   142                     110.5721771   92.97726  15.9%   188   18s
   274   242   95.02658   11   12  110.57218   92.97726  15.9%   162   23s
  1597   653  110.00245   13   13  110.57218   93.91883  15.1%   135   29s
  2677   826  103.25210   15   11  110.57218   95.71452  13.4%   123   30s
  5185  1183     cutoff   17       110.57218  103.42293  6.47%   113   35s
  7083  1432     cutoff   15       110.57218  105.27553  4.79%   105   42s
  8183  1556  107.96253   11   10  110.57218  105.60657  4.49%   102   49s
 10518  1657  109.45065   20   11  110.57218  106.67740  3.52%  94.8   50s

Cutting planes:
  Gomory: 1
  Implied bound: 14
  MIR: 474
  Relax-and-lift: 3

Explored 18122 nodes (1407986 simplex iterations) in 53.34 seconds (59.62 work units)
Thread count was 36 (of 36 available processors)

Solution count 9: 110.572 110.662 110.873 ... 152.746

Optimal solution found (tolerance 1.00e-02)
Best objective 1.105721770945e+02, best bound 1.095080777079e+02, gap 0.9624%

Gurobi 9.5.0 (linux64) logging started Wed Nov 22 16:18:23 2023

Set parameter LogFile to value "/lustre1/scratch/348/vsc34888/JointResearch/05.Models/06.Benchmarking/D.Representative_days_based_on_RES_and_Demand/RTS24_mod1_ByStages_nc20/openStarNet_RTS24_mod1_ByStages_nc20.log"
Set parameter Method to value 2
Set parameter MIPFocus to value 1
Set parameter Presolve to value 2
Set parameter RINS to value 100
Set parameter MIPGap to value 0.01
Set parameter Threads to value 36
Set parameter TimeLimit to value 604800
Set parameter IterationLimit to value 760000000
No parameters matching 'relax_integrality' found
Gurobi Optimizer version 9.5.0 build v9.5.0rc5 (linux64)
Thread count: 36 physical cores, 36 logical processors, using up to 36 threads
Optimize a model with 10041 rows, 5814 columns and 23531 nonzeros
Model fingerprint: 0xe3f991b7
Coefficient statistics:
  Matrix range     [5e-03, 1e+04]
  Objective range  [1e+00, 1e+00]
  Bounds range     [7e-05, 3e+00]
  RHS range        [7e-05, 3e+01]
Presolve removed 8194 rows and 2965 columns
Presolve time: 0.01s
Presolved: 1847 rows, 2870 columns, 6754 nonzeros

Ordering time: 0.00s

Barrier statistics:
 AA' NZ     : 5.102e+03
 Factor NZ  : 2.151e+04 (roughly 2 MB of memory)
 Factor Ops : 3.208e+05 (less than 1 second per iteration)
 Threads    : 1

                  Objective                Residual
Iter       Primal          Dual         Primal    Dual     Compl     Time
   0   4.77601265e+05 -1.59712238e+07  4.47e+00 3.60e+02  6.10e+03     0s
   1   5.50678319e+04 -2.52084028e+06  3.81e-01 4.55e-12  6.33e+02     0s
   2   1.48101050e+04 -2.34737980e+05  7.15e-03 4.05e-12  4.87e+01     0s
   3   3.75343874e+03 -2.18512891e+04  3.94e-05 1.05e-11  4.93e+00     0s
   4   4.74745562e+02 -1.76681249e+03  7.28e-14 2.63e-12  4.32e-01     0s
   5   2.90970427e+02 -4.68588714e+02  4.71e-14 9.09e-13  1.46e-01     0s
   6   1.85457540e+02 -1.55952645e+02  8.57e-14 9.09e-13  6.57e-02     0s
   7   1.37555642e+02  4.21550456e+01  3.08e-13 9.09e-13  1.84e-02     0s
   8   1.13285463e+02  9.71934576e+01  1.65e-12 9.09e-13  3.10e-03     0s
   9   1.11235681e+02  1.07917565e+02  3.28e-12 9.09e-13  6.39e-04     0s
  10   1.10727409e+02  1.10061652e+02  2.31e-12 9.09e-13  1.28e-04     0s
  11   1.10589789e+02  1.10501078e+02  4.29e-12 1.82e-12  1.71e-05     0s
  12   1.10572368e+02  1.10570936e+02  2.09e-12 1.36e-12  2.76e-07     0s
  13   1.10572177e+02  1.10572176e+02  7.45e-13 9.09e-13  2.76e-10     0s
  14   1.10572177e+02  1.10572177e+02  7.66e-13 9.09e-13  2.76e-13     0s

Barrier solved model in 14 iterations and 0.04 seconds (0.03 work units)
Optimal objective 1.10572177e+02

Crossover log...

     291 DPushes remaining with DInf 0.0000000e+00                 0s
       0 DPushes remaining with DInf 0.0000000e+00                 0s

     105 PPushes remaining with PInf 0.0000000e+00                 0s
       0 PPushes remaining with PInf 0.0000000e+00                 0s

  Push phase complete: Pinf 0.0000000e+00, Dinf 1.9165274e-12      0s

Iteration    Objective       Primal Inf.    Dual Inf.      Time
     121    1.1057218e+02   0.000000e+00   0.000000e+00      0s

Use crossover to convert LP symmetric solution to basic solution...
Crossover log...

       0 DPushes remaining with DInf 0.0000000e+00                 0s

      87 PPushes remaining with PInf 0.0000000e+00                 0s
       0 PPushes remaining with PInf 0.0000000e+00                 0s

  Push phase complete: Pinf 0.0000000e+00, Dinf 2.6656470e-12      0s

Iteration    Objective       Primal Inf.    Dual Inf.      Time
     224    1.1057218e+02   0.000000e+00   0.000000e+00      0s

Solved in 224 iterations and 0.06 seconds (0.03 work units)
Optimal objective  1.105721771e+02
